53 615
2 3 5 6 7 10 11 12 14 15 20 21 23 29 31 32 36 37 44 47
5 6 12 13 15 17 23 28 31 33 34 37 40 42 43 45 46 48 50 51 52
0 7 9 10 13 14 17 19 22 24 25 26 28 30 31 34 37 40 42 43 44 45 46 47 49 50
0 4 6 8 10 18 19 21 22 25 29 30 32 33 35 39 40 42 43 46 47 50
3 8 11 15 21 24 25 27 36 37 40 43 44 49 51 52
0 1 7 15 16 17 20 21 22 26 28 29 30 37 38 40 44 45 47 48 52
0 1 3 8 10 13 14 18 20 23 25 30 32 36 40 45 47 48 52
0 2 5 8 9 12 13 16 18 19 26 29 30 31 33 34 35 36 37 40 44 45 46 47 49 51 52
3 4 6 7 9 11 12 16 17 18 19 20 22 23 25 34 35 38 39 41 42 43 44 45 50 51
2 7 8 10 15 16 17 19 20 23 25 26 29 31 33 37 38 42 44 47 49
0 2 3 6 9 11 14 15 16 21 22 23 25 28 29 30 31 33 39 40 42 44 45 46 49 51
0 4 8 10 12 17 18 20 21 24 29 30 31 34 38 40 43 44 48 50
0 1 7 8 11 13 15 17 19 20 21 23 24 30 32 33 34 36 38 40 41 42 44 45 48 49 51
1 2 6 7 12 15 16 17 18 19 21 22 25 27 29 30 31 35 38 41 42 43 44 46 48 51 52
0 2 6 10 15 19 20 22 25 27 29 30 33 34 36 38 41 42 43 45 48 50 51 52
0 1 4 5 9 10 12 13 14 20 22 23 25 26 27 30 31 38 39 40 42 45 48 49 51
5 7 8 9 10 13 17 18 21 23 26 28 29 31 33 39 41 43 44 47 48 50 52
1 2 5 8 9 11 12 13 16 19 21 23 25 28 29 30 35 41 47 48 49 50 52
3 6 7 8 11 13 16 20 21 22 26 29 32 35 37 38 40 41 42 43 44 48 51
2 3 7 8 9 12 13 14 17 21 22 26 27 30 34 35 36 39 40 42 45 47 50
0 5 6 8 9 11 12 14 15 18 21 24 25 26 27 29 30 34 37 40 43 47 52
0 3 4 5 10 11 12 13 16 17 18 19 20 22 23 24 28 29 31 34 35 44 45 46 48 50 52
2 3 5 8 10 13 14 15 18 19 21 25 27 30 31 36 39 40 41 43 47 48 49 50 51
0 1 6 8 9 10 12 15 16 17 21 27 33 37 39 40 42 43 44 49
2 4 11 12 20 21 25 26 27 29 33 35 38 40 42 45 46 48 50
2 3 4 6 8 9 10 13 14 15 17 20 22 24 26 27 30 32 34 35 36 38 40 43 48 50 51 52
2 5 7 9 15 16 18 19 20 24 25 27 28 29 30 31 33 35 36 37 40 47 50 52
4 13 14 15 19 20 22 23 24 25 26 29 30 33 34 35 39 40 43 44 45 46 51 52
1 2 5 10 16 17 21 26 29 31 33 37 38 39 41 43 44 45 46 48 51 52
0 3 5 7 9 10 11 13 14 16 17 18 20 21 24 26 27 28 33 36 40 44 46 48 50
2 3 5 6 7 10 11 12 13 14 15 17 19 20 22 25 26 27 31 33 37 38 39 42 43 44 45 49 51 52
0 1 2 7 9 10 11 13 15 16 21 22 26 28 30 41 44 46 49 50
0 3 6 12 18 25 38 39 40 41 43 45 47 48 49 51 52
1 3 7 9 10 12 14 16 23 24 26 27 28 29 30 39 40 42 43 45 46 47 48 52
1 2 7 8 11 12 14 19 20 21 25 27 35 40 42 45 47 49 50
3 7 8 13 17 18 19 21 24 25 26 27 34 37 38 40 41 42 44 48
0 4 6 7 12 14 19 22 25 26 29 37 38 39 40 41 43 44 46 48 50 51
0 1 2 4 5 7 9 18 20 23 26 28 30 35 36 40 41 44 46 51 52
5 8 9 11 12 13 14 15 18 24 25 28 30 32 35 36 43 44 45 46 49 50
3 8 10 15 16 19 22 23 27 28 30 32 33 36 41 42 50 52
1 2 3 4 5 6 7 10 11 12 15 18 19 20 22 23 24 25 26 27 29 32 33 34 35 36 37 45 46 47 48 52
8 12 13 14 16 17 18 22 28 31 32 35 36 37 39 43 45 46 48 51 52
1 2 3 8 9 10 12 13 14 15 18 19 23 24 30 33 34 35 39 43 44 48 50
1 2 3 4 8 11 13 14 16 18 20 22 23 25 27 28 30 32 33 36 38 41 42 48 49 52
0 2 4 5 7 8 9 10 11 12 13 16 18 21 23 27 28 29 30 31 35 36 37 38 42 46 48 49 50
1 2 5 6 7 8 10 12 14 15 19 21 24 27 28 30 32 33 34 38 40 41 49 50 52
1 2 3 7 10 13 21 24 27 28 29 31 33 36 37 38 40 41 44 48 49 50
0 2 3 5 6 7 9 16 17 19 20 22 26 32 33 34 40 51
1 5 6 11 12 13 14 15 16 17 18 21 22 24 25 28 29 32 33 35 36 40 41 42 43 44 46 50 51
2 4 7 9 10 12 15 17 22 23 30 31 32 34 38 43 44 45 46 50 51 52
1 2 3 8 11 14 16 17 19 21 22 24 25 26 29 31 34 36 38 39 42 44 45 46 48 49
1 4 7 8 10 12 13 14 15 18 22 25 27 28 30 32 36 37 41 47 48 49
1 4 5 6 7 13 14 16 17 20 21 25 26 27 28 30 32 33 37 39 40 41 43 45 49
